PROBLEM NAME: eil51_n5
KNAPSACK DATA TYPE: uncorrelated, similar weights
DIMENSION: 5
NUMBER OF ITEMS: 4
CAPACITY OF KNAPSACK: 218341
MIN SPEED: 0.1
MAX SPEED: 1
RENTING RATIO: 1.98
EDGE_WEIGHT_TYPE: CEIL_2D
NODE_COORD_SECTION	(INDEX, X, Y):
1	31	32
2	36	16
3	62	63
4	5	6
5	30	15
ITEMS SECTION	(INDEX, PROFIT, WEIGHT, ASSIGNED NODE NUMBER):
1	586	100072	3
2	486	100051	2
3	337	100081	5
4	280	100089	4
